SCIP Status        : problem creation / modification
Total Time         :       0.05
  reading          :       0.05
Original Problem   :
  Problem name     : main4.zpl
  Variables        : 3905 (3905 binary, 0 integer, 0 implicit integer, 0 continuous)
  Constraints      : 0 initial, 3975 maximal
  Objective        : minimize, 3905 non-zeros (abs.min = 0.00085, abs.max = 5700)
